Traveling Salesman Problem/TSP_generados/Aleatorio1621103264_7.tsp
NAME: Aleatorio1621103264_7.tsp
COMMENT: Randomly generated scenario
TYPE: TSP
DIMENSION: 7
EDGE_WEIGHT_TYPE: ATT
NODE_COORD_SECTION
1 38.68 18.94
2 21.65 0.41
3 15.5 23.36
4 23.03 32.39
5 38.69 27.24
6 14.31 35.51
7 47.66 32.38
