Traveling Salesman Problem/TSP_generados/Aleatorio1621103264_7.opt.tour
NAME: Aleatorio1621103264_7.opt.tour
COMMENT: Optimal solution for Aleatorio1621103264_7 (113.38367182290557)
TYPE: TOUR
DIMENSION: 7
TOUR_SECTION
1 2 3 6 4 5 7
-1
EOF
